50 8
702 823
881 626
642 928
354 386
583 747
533 439
552 791
834 641
262 783
568 785
513 181
359 779
347 255
832 707
611 755
318 180
64 740
767 246
631 690
439 528
18 743
182 498
281 373
137 316
612 835
457 428
417 243
394 529
819 455
814 576
718 773
741 945
831 504
594 634
267 238
607 609
205 350
367 178
572 774
239 216
729 898
713 322
789 627
610 818
333 235
848 794
249 174
421 373
677 362
856 884
